<number of tasks>
20

<cycle time>
1000

<order strength>
0,211


<task times>
1 518
2 476
3 292
4 612
5 438
6 552
7 648
8 357
9 552
10 665
11 454
12 536
13 484
14 583
15 568
16 666
17 246
18 343
19 383
20 752

<precedence relations>
3,5
3,7
3,8
4,6
4,9
6,10
7,11
10,12
10,13
10,14
11,15
11,16
15,17
15,18
15,19
16,20

<end>
